
  32    4
  10   10   10   10

   0   0   0   0   0   5 2 4 6 9 20 
   9  10  10  10  10   3 10 5 3 
   6  10  10  10  10   3 19 18 7 
   5  10  10  10  10   3 19 18 7 
   4  10  10  10  10   3 12 11 8 
   9  10  10  10  10   2 19 7 
  10  10  10  10  10   3 17 12 11 
   9  10  10  10  10   5 21 19 17 15 14 
   5  10  10  10  10   4 23 18 17 12 
   3  10  10  10  10   5 24 18 16 15 14 
   2  10  10  10  10   4 24 21 16 13 
   8  10  10  10  10   3 24 16 15 
   1  10  10  10  10   1 14 
  10  10  10  10  10   4 29 28 23 22 
   2  10  10  10  10   5 31 29 28 27 25 
   6  10  10  10  10   4 30 28 25 22 
   6  10  10  10  10   4 30 29 28 22 
   3  10  10  10  10   4 31 29 25 22 
   1  10  10  10  10   3 30 24 23 
   3  10  10  10  10   3 30 28 23 
  10  10  10  10  10   1 23 
  10  10  10  10  10   2 27 26 
   2  10  10  10  10   1 25 
   2  10  10  10  10   1 25 
   5  10  10  10  10   1 26 
   3  10  10  10  10   1 32
   5  10  10  10  10   1 32
   9  10  10  10  10   1 32
   1  10  10  10  10   1 32
   3  10  10  10  10   1 32
   3  10  10  10  10   1 32
   0   0   0   0   0   0 
